
Gurobi 7.0.0 (win32, Python) logging started 11/15/16 15:29:37


Gurobi 7.0.0 (win32, Python) logging started 11/15/16 15:35:20


Gurobi 7.0.0 (win32, Python) logging started 11/15/16 15:37:22


Gurobi 7.0.0 (win32, Python) logging started 11/15/16 15:37:51


Gurobi 7.0.0 (win32, Python) logging started 11/15/16 15:38:23


Gurobi 7.0.0 (win32, Python) logging started 11/15/16 15:41:16


Gurobi 7.0.0 (win32, Python) logging started 11/15/16 15:41:28


Gurobi 7.0.0 (win32, Python) logging started 11/15/16 15:41:57


Gurobi 7.0.0 (win32, Python) logging started 11/15/16 15:42:41


Gurobi 7.0.0 (win32, Python) logging started 11/15/16 15:42:50


Gurobi 7.0.0 (win32, Python) logging started 11/15/16 15:58:04


Gurobi 7.0.0 (win32, Python) logging started 11/15/16 15:58:16


Gurobi 7.0.0 (win32, Python) logging started 11/15/16 16:00:54


Gurobi 7.0.0 (win32, Python) logging started 11/15/16 16:01:05


Gurobi 7.0.0 (win32, Python) logging started 11/15/16 16:01:16


Gurobi 7.0.0 (win32, Python) logging started 11/15/16 16:01:37


Gurobi 7.0.0 (win32, Python) logging started 11/15/16 16:07:28


Gurobi 7.0.0 (win32, Python) logging started 11/15/16 16:07:38


Gurobi 7.0.0 (win32, Python) logging started 11/15/16 16:08:54


Gurobi 7.0.0 (win32, Python) logging started 11/15/16 16:11:41


Gurobi 7.0.0 (win32, Python) logging started 11/15/16 16:12:30


Gurobi 7.0.0 (win32, Python) logging started 11/15/16 16:12:37


Gurobi 7.0.0 (win32, Python) logging started 11/15/16 16:18:19


Gurobi 7.0.0 (win32, Python) logging started 11/15/16 16:21:54


Gurobi 7.0.0 (win32, Python) logging started 11/15/16 16:21:59


Gurobi 7.0.0 (win32, Python) logging started 11/15/16 16:25:40


Gurobi 7.0.0 (win32, Python) logging started 11/15/16 16:26:02


Gurobi 7.0.0 (win32, Python) logging started 11/15/16 16:30:32


Gurobi 7.0.0 (win32, Python) logging started 11/15/16 16:33:59


Gurobi 7.0.0 (win32, Python) logging started 11/15/16 16:34:15


Gurobi 7.0.0 (win32, Python) logging started 11/15/16 16:34:47


Gurobi 7.0.0 (win32, Python) logging started 11/15/16 16:34:57


Gurobi 7.0.0 (win32, Python) logging started 11/15/16 16:35:15


Gurobi 7.0.0 (win32, Python) logging started 11/15/16 16:35:33


Gurobi 7.0.0 (win32, Python) logging started 11/15/16 16:35:46


Gurobi 7.0.0 (win32, Python) logging started 11/15/16 16:36:00


Gurobi 7.0.0 (win32, Python) logging started 11/15/16 16:37:59


Gurobi 7.0.0 (win32, Python) logging started 11/15/16 16:38:07


Gurobi 7.0.0 (win32, Python) logging started 11/15/16 16:39:22


Gurobi 7.0.0 (win32, Python) logging started 11/15/16 16:47:57


Gurobi 7.0.0 (win32, Python) logging started 11/15/16 16:48:10


Gurobi 7.0.0 (win32, Python) logging started 11/15/16 16:48:24


Gurobi 7.0.0 (win32, Python) logging started 11/15/16 16:50:13


Gurobi 7.0.0 (win32, Python) logging started 11/15/16 16:50:26


Gurobi 7.0.0 (win32, Python) logging started 11/15/16 16:50:38


Gurobi 7.0.0 (win32, Python) logging started 11/15/16 16:52:40


Gurobi 7.0.0 (win32, Python) logging started 11/15/16 16:53:20


Gurobi 7.0.0 (win32, Python) logging started 11/15/16 16:54:34


Gurobi 7.0.0 (win32, Python) logging started 11/15/16 16:55:24


Gurobi 7.0.0 (win32, Python) logging started 11/15/16 16:55:39


Gurobi 7.0.0 (win32, Python) logging started 11/15/16 16:55:46


Gurobi 7.0.0 (win32, Python) logging started 11/15/16 16:58:56


Gurobi 7.0.0 (win32, Python) logging started 11/15/16 17:00:01


Gurobi 7.0.0 (win32, Python) logging started 11/15/16 17:00:24


Gurobi 7.0.0 (win32, Python) logging started 11/15/16 17:00:37


Gurobi 7.0.0 (win32, Python) logging started 11/15/16 17:00:55


Gurobi 7.0.0 (win32, Python) logging started 11/15/16 17:01:18


Gurobi 7.0.0 (win32, Python) logging started 11/15/16 17:01:44


Gurobi 7.0.0 (win32, Python) logging started 11/15/16 17:02:01


Gurobi 7.0.0 (win32, Python) logging started 11/15/16 17:02:10


Gurobi 7.0.0 (win32, Python) logging started 11/15/16 17:02:53


Gurobi 7.0.0 (win32, Python) logging started 11/15/16 17:03:00


Gurobi 7.0.0 (win32, Python) logging started 11/15/16 17:03:17


Gurobi 7.0.0 (win32, Python) logging started 11/15/16 17:03:27


Gurobi 7.0.0 (win32, Python) logging started 11/15/16 17:03:56


Gurobi 7.0.0 (win32, Python) logging started 11/15/16 17:04:46


Gurobi 7.0.0 (win32, Python) logging started 11/15/16 17:05:01


Gurobi 7.0.0 (win32, Python) logging started 11/15/16 17:05:11


Gurobi 7.0.0 (win32, Python) logging started 11/15/16 17:06:06


Gurobi 7.0.0 (win32, Python) logging started 11/15/16 17:07:56


Gurobi 7.0.0 (win32, Python) logging started 11/15/16 17:08:16


Gurobi 7.0.0 (win32, Python) logging started 11/15/16 17:08:34


Gurobi 7.0.0 (win32, Python) logging started 11/15/16 17:09:19


Gurobi 7.0.0 (win32, Python) logging started 11/15/16 17:09:28


Gurobi 7.0.0 (win32, Python) logging started 11/15/16 17:11:20


Gurobi 7.0.0 (win32, Python) logging started 11/15/16 17:11:28


Gurobi 7.0.0 (win32, Python) logging started 11/15/16 17:11:42


Gurobi 7.0.0 (win32, Python) logging started 11/15/16 17:12:56


Gurobi 7.0.0 (win32, Python) logging started 11/15/16 17:13:06


Gurobi 7.0.0 (win32, Python) logging started 11/15/16 17:13:12


Gurobi 7.0.0 (win32, Python) logging started 11/15/16 17:13:16


Gurobi 7.0.0 (win32, Python) logging started 11/15/16 17:13:21


Gurobi 7.0.0 (win32, Python) logging started 11/15/16 17:14:13


Gurobi 7.0.0 (win32, Python) logging started 11/15/16 17:16:23


Gurobi 7.0.0 (win32, Python) logging started 11/15/16 17:16:51


Gurobi 7.0.0 (win32, Python) logging started 11/15/16 17:17:02


Gurobi 7.0.0 (win32, Python) logging started 11/15/16 17:17:51


Gurobi 7.0.0 (win32, Python) logging started 11/15/16 17:18:17


Gurobi 7.0.0 (win32, Python) logging started 11/15/16 17:18:41


Gurobi 7.0.0 (win32, Python) logging started 11/15/16 19:04:28


Gurobi 7.0.0 (win32, Python) logging started 11/15/16 19:04:47


Gurobi 7.0.0 (win32, Python) logging started 11/15/16 19:05:48


Gurobi 7.0.0 (win32, Python) logging started 11/15/16 19:06:30


Gurobi 7.0.0 (win32, Python) logging started 11/15/16 19:09:56


Gurobi 7.0.0 (win32, Python) logging started 11/15/16 19:10:40


Gurobi 7.0.0 (win32, Python) logging started 11/15/16 19:10:48


Gurobi 7.0.0 (win32, Python) logging started 11/16/16 11:58:06


Gurobi 7.0.0 (win32, Python) logging started 11/16/16 11:58:30


Gurobi 7.0.0 (win32, Python) logging started 11/16/16 11:59:06


Gurobi 7.0.0 (win32, Python) logging started 11/17/16 13:22:13


Gurobi 7.0.0 (win32, Python) logging started 11/17/16 13:29:24


Gurobi 7.0.0 (win32, Python) logging started 11/17/16 13:29:36


Gurobi 7.0.0 (win32, Python) logging started 11/17/16 13:30:08


Gurobi 7.0.0 (win32, Python) logging started 11/17/16 13:30:38


Gurobi 7.0.0 (win32, Python) logging started 11/17/16 13:31:04


Gurobi 7.0.0 (win32, Python) logging started 11/17/16 13:31:38


Gurobi 7.0.0 (win32, Python) logging started 11/17/16 13:32:45


Gurobi 7.0.0 (win32, Python) logging started 11/17/16 13:35:41


Gurobi 7.0.0 (win32, Python) logging started 11/17/16 13:37:43


Gurobi 7.0.0 (win32, Python) logging started 11/17/16 13:41:10


Gurobi 7.0.0 (win32, Python) logging started 11/17/16 13:41:58


Gurobi 7.0.0 (win32, Python) logging started 11/17/16 13:42:20


Gurobi 7.0.0 (win32, Python) logging started 11/17/16 13:42:46


Gurobi 7.0.0 (win32, Python) logging started 11/17/16 13:47:29


Gurobi 7.0.0 (win32, Python) logging started 11/17/16 13:49:55


Gurobi 7.0.0 (win32, Python) logging started 11/17/16 13:50:28


Gurobi 7.0.0 (win32, Python) logging started 11/17/16 13:57:25


Gurobi 7.0.0 (win32, Python) logging started 11/17/16 13:58:48


Gurobi 7.0.0 (win32, Python) logging started 11/17/16 14:04:29


Gurobi 7.0.0 (win32, Python) logging started 11/17/16 14:04:38


Gurobi 7.0.0 (win32, Python) logging started 11/17/16 14:05:20


Gurobi 7.0.0 (win32, Python) logging started 11/17/16 15:08:36


Gurobi 7.0.0 (win32, Python) logging started 11/17/16 15:09:41


Gurobi 7.0.0 (win32, Python) logging started 11/17/16 15:16:40


Gurobi 7.0.0 (win32, Python) logging started 11/17/16 15:24:43


Gurobi 7.0.0 (win32, Python) logging started 11/17/16 15:40:57


Gurobi 7.0.0 (win32, Python) logging started 11/17/16 15:50:39


Gurobi 7.0.0 (win32, Python) logging started 11/17/16 15:52:00


Gurobi 7.0.0 (win32, Python) logging started 11/17/16 15:52:11


Gurobi 7.0.0 (win32, Python) logging started 11/17/16 15:53:12


Gurobi 7.0.0 (win32, Python) logging started 11/17/16 15:55:45


Gurobi 7.0.0 (win32, Python) logging started 11/17/16 15:56:10


Gurobi 7.0.0 (win32, Python) logging started 11/17/16 16:05:53


Gurobi 7.0.0 (win32, Python) logging started 11/17/16 16:06:41


Gurobi 7.0.0 (win32, Python) logging started 11/17/16 16:11:44


Gurobi 7.0.0 (win32, Python) logging started 11/17/16 16:16:51


Gurobi 7.0.0 (win32, Python) logging started 11/17/16 16:17:23


Gurobi 7.0.0 (win32, Python) logging started 11/17/16 16:18:06


Gurobi 7.0.0 (win32, Python) logging started 11/17/16 17:30:49


Gurobi 7.0.0 (win32, Python) logging started 11/17/16 17:35:16


Gurobi 7.0.0 (win32, Python) logging started 11/17/16 17:35:31


Gurobi 7.0.0 (win32, Python) logging started 11/17/16 17:38:01


Gurobi 7.0.0 (win32, Python) logging started 11/17/16 17:38:26


Gurobi 7.0.0 (win32, Python) logging started 11/17/16 17:41:27


Gurobi 7.0.0 (win32, Python) logging started 11/17/16 17:41:48


Gurobi 7.0.0 (win32, Python) logging started 11/17/16 17:42:11


Gurobi 7.0.0 (win32, Python) logging started 11/17/16 17:42:27


Gurobi 7.0.0 (win32, Python) logging started 11/17/16 17:42:38


Gurobi 7.0.0 (win32, Python) logging started 11/17/16 17:42:48


Gurobi 7.0.0 (win32, Python) logging started 11/17/16 17:42:54


Gurobi 7.0.0 (win32, Python) logging started 11/17/16 17:42:58


Gurobi 7.0.0 (win32, Python) logging started 11/17/16 17:43:02


Gurobi 7.0.0 (win32, Python) logging started 11/17/16 17:43:07


Gurobi 7.0.0 (win32, Python) logging started 11/17/16 17:43:15


Gurobi 7.0.0 (win32, Python) logging started 11/17/16 17:44:49


Gurobi 7.0.0 (win32, Python) logging started 11/17/16 17:44:58


Gurobi 7.0.0 (win32, Python) logging started 11/17/16 17:48:16


Gurobi 7.0.0 (win32, Python) logging started 11/17/16 17:48:31


Gurobi 7.0.0 (win32, Python) logging started 11/17/16 17:48:44


Gurobi 7.0.0 (win32, Python) logging started 11/17/16 17:48:56


Gurobi 7.0.0 (win32, Python) logging started 11/17/16 17:50:15


Gurobi 7.0.0 (win32, Python) logging started 11/17/16 17:50:27


Gurobi 7.0.0 (win32, Python) logging started 11/17/16 17:50:43


Gurobi 7.0.0 (win32, Python) logging started 11/17/16 17:50:51


Gurobi 7.0.0 (win32, Python) logging started 11/17/16 17:51:29


Gurobi 7.0.0 (win32, Python) logging started 11/17/16 17:51:40


Gurobi 7.0.0 (win32, Python) logging started 11/17/16 17:52:00


Gurobi 7.0.0 (win32, Python) logging started 11/17/16 17:52:35


Gurobi 7.0.0 (win32, Python) logging started 11/17/16 17:52:39


Gurobi 7.0.0 (win32, Python) logging started 11/17/16 17:52:42


Gurobi 7.0.0 (win32, Python) logging started 11/17/16 17:52:55


Gurobi 7.0.0 (win32, Python) logging started 11/17/16 17:52:59


Gurobi 7.0.0 (win32, Python) logging started 11/17/16 17:56:22


Gurobi 7.0.0 (win32, Python) logging started 11/17/16 17:56:53


Gurobi 7.0.0 (win32, Python) logging started 11/17/16 17:56:58


Gurobi 7.0.0 (win32, Python) logging started 11/17/16 17:57:46


Gurobi 7.0.0 (win32, Python) logging started 11/17/16 17:59:54


Gurobi 7.0.0 (win32, Python) logging started 11/17/16 18:00:01


Gurobi 7.0.0 (win32, Python) logging started 11/17/16 18:00:25


Gurobi 7.0.0 (win32, Python) logging started 11/17/16 18:01:12


Gurobi 7.0.0 (win32, Python) logging started 11/17/16 18:01:43


Gurobi 7.0.0 (win32, Python) logging started 11/17/16 18:02:22


Gurobi 7.0.0 (win32, Python) logging started 11/17/16 18:03:10


Gurobi 7.0.0 (win32, Python) logging started 11/17/16 18:04:16


Gurobi 7.0.0 (win32, Python) logging started 11/17/16 18:04:41


Gurobi 7.0.0 (win32, Python) logging started 11/17/16 18:04:51


Gurobi 7.0.0 (win32, Python) logging started 11/17/16 18:04:59


Gurobi 7.0.0 (win32, Python) logging started 11/17/16 18:05:07


Gurobi 7.0.0 (win32, Python) logging started 11/17/16 18:05:21


Gurobi 7.0.0 (win32, Python) logging started 11/17/16 18:06:08


Gurobi 7.0.0 (win32, Python) logging started 11/17/16 18:06:20


Gurobi 7.0.0 (win32, Python) logging started 11/17/16 18:06:50


Gurobi 7.0.0 (win32, Python) logging started 11/17/16 18:08:16


Gurobi 7.0.0 (win32, Python) logging started 11/17/16 18:08:43


Gurobi 7.0.0 (win32, Python) logging started 11/17/16 18:08:57


Gurobi 7.0.0 (win32, Python) logging started 11/17/16 18:24:53


Gurobi 7.0.0 (win32, Python) logging started 11/18/16 13:43:37


Gurobi 7.0.0 (win32, Python) logging started 11/18/16 17:15:16


Gurobi 7.0.0 (win32, Python) logging started 11/18/16 17:15:31


Gurobi 7.0.0 (win32, Python) logging started 11/18/16 17:16:19


Gurobi 7.0.0 (win32, Python) logging started 11/22/16 15:10:33


Gurobi 7.0.0 (win32, Python) logging started 11/22/16 15:10:52


Gurobi 7.0.0 (win32, Python) logging started 11/22/16 15:11:24


Gurobi 7.0.0 (win32, Python) logging started 11/22/16 15:11:32

Optimize a model with 1 rows, 100 columns and 25 nonzeros
Variable types: 50 continuous, 50 integer (50 binary)
Coefficient statistics:
  Matrix range     [1e+00, 1e+00]
  Objective range  [0e+00, 0e+00]
  Bounds range     [1e+00, 1e+00]
  RHS range        [1e+00, 1e+00]
Found heuristic solution: objective 0

Explored 0 nodes (0 simplex iterations) in 0.02 seconds
Thread count was 1 (of 4 available processors)

Solution count 1: 0 
Pool objective bound 0

Optimal solution found (tolerance 1.00e-04)
Best objective 0.000000000000e+00, best bound 0.000000000000e+00, gap -

Gurobi 7.0.0 (win32, Python) logging started 11/22/16 15:11:45


Gurobi 7.0.0 (win32, Python) logging started 11/22/16 15:14:03


Gurobi 7.0.0 (win32, Python) logging started 11/22/16 15:21:49


Gurobi 7.0.0 (win32, Python) logging started 11/22/16 15:22:36


Gurobi 7.0.0 (win32, Python) logging started 11/22/16 15:31:02


Gurobi 7.0.0 (win32, Python) logging started 11/22/16 15:31:13


Gurobi 7.0.0 (win32, Python) logging started 11/22/16 15:33:42


Gurobi 7.0.0 (win32, Python) logging started 11/22/16 15:34:16

